clingo version 5.6.2
Reading from ...etition/0043-graph_colouring-145-0.asp ...
Solving...
UNSATISFIABLE

Models       : 0
Calls        : 1
Time         : 61.921s (Solving: 61.68s 1st Model: 0.00s Unsat: 61.68s)
CPU Time     : 61.852s

Choices      : 1801261 
Conflicts    : 1667179  (Analyzed: 1667178)
Restarts     : 4093     (Average: 407.32 Last: 56032)
Problems     : 1        (Average Length: 0.00 Splits: 0)
Lemmas       : 1667178  (Deleted: 1594058)
  Binary     : 331      (Ratio:   0.02%)
  Ternary    : 2081     (Ratio:   0.12%)
  Conflict   : 1667178  (Average Length:   25.9 Ratio: 100.00%) 
  Loop       : 0        (Average Length:    0.0 Ratio:   0.00%) 
  Other      : 0        (Average Length:    0.0 Ratio:   0.00%) 
Backjumps    : 1667178  (Average:  1.07 Max:  10 Sum: 1778355)
  Executed   : 1667178  (Average:  1.07 Max:  10 Sum: 1778355 Ratio: 100.00%)
  Bounded    : 0        (Average:  0.00 Max:   0 Sum:      0 Ratio:   0.00%)

Rules        : 21452   
Atoms        : 3888    
Bodies       : 1430    
Equivalences : 2832     (Atom=Atom: 14 Body=Body: 704 Other: 2114)
Tight        : Yes
Variables    : 855      (Eliminated:    0 Frozen:    0)
Constraints  : 8664     (Binary:  90.3% Ternary:   0.0% Other:   9.7%)

